; --proof-with-sharing --index-fresh-sorts --proof-define-skolems --proof-prune --proof-merge --disable-print-success --disable-banner --max-time=30
(set-option :produce-proofs true)
(set-logic AUFLIA)
(declare-sort A_s_a_fun_fun_d 0)
(declare-sort A_literal_multiset_d 0)
(declare-fun c_d () A_literal_multiset_d)
(declare-fun subsumes_d (A_s_a_fun_fun_d A_literal_multiset_d A_literal_multiset_d) Bool)
(declare-fun subst_atm_d () A_s_a_fun_fun_d)
(assert (! (not (not (and (subsumes_d subst_atm_d c_d c_d) (not (subsumes_d subst_atm_d c_d c_d))))) :named a0))
(check-sat)
;;;;(get-proof)
